%  Formato de entrada de datos para el problema Planta de Energias 
%  Numero de Dias para produccion de energia 
n=7; 
%  Numero de clientes 
s=5; 
%  Capacidad de produccion diaria en MW 
CP=[2000.0, 500.0, 1250.0]; 
%  Costo de produccion de 1 MW para cada central 
CC=[0.2, 0.3, 0.1]; 
%  Demanda diaria de MW para s cliente hasta n dias 
d=[|1000.0, 800.0, 600.0, 750.0, 925.0, 600.0, 1000.0| 250.0, 300.0, 350.0, 400.0, 450.0, 500.0, 550.0| 500.0, 500.0, 500.0, 500.0, 600.0, 800.0, 800.0| 750.0, 800.0, 950.0, 800.0, 950.0, 750.0, 750.0| 2000.0, 1300.0, 1350.0, 1300.0, 800.0, 1000.0, 600.0|]; 
